NAME : N20ft307.dat.6918.tour
COMMENT : Length = 6918
COMMENT : Found by LKH [Keld Helsgaun] Sat Nov 11 16:41:59 2017
TYPE : TOUR
DIMENSION : 20
TOUR_SECTION
1
17
7
9
14
11
20
2
15
12
3
19
18
6
4
10
8
5
13
16
-1
EOF
